12 32 3 10
1 7 14 9 6 3 17 15 9 12 16 17 16 13 14 8 12 19 5 1 14 5 6 14 4 14 5 14 17 11 14 19 
3.87 5.52 6.45 0.48 1.91 4.93 0.26 7.82 0.42 5.39 4.14 7.82 6.62 4.13 7.22 2.48 6.14 3.87 2.91 2.79 2.04 0.04 3 1.29 5.43 5.68 1.81 1.24 0.41 7.07 5.65 5.68 
3.29 0.66 4.26 3.02 1.77 2.48 2.42 7.95 2.22 4.44 7.03 2.55 4.48 0.12 5.62 3.38 2.67 1.68 0.07 2.07 5.57 5.02 1.48 4.15 0.91 3.06 4.61 4.76 0.25 1.56 0.43 7.43 
5.42 5.88 4.64 6.82 2.99 5.77 4.39 0.25 4.16 4.79 6.03 4.35 1.64 4.13 4.49 3.02 4.53 1.05 5.79 6.72 2.51 2 7.05 5.36 5.68 1.26 3.43 2 2.08 6.27 3.75 0.87 
4 4 4 4 4 4 4 4 4 4 4 4 4 4 4 4 4 4 4 4 4 4 4 4 4 4 4 4 4 4 4 4 
3.84 3.76 1.71 5.09 4.79 7.81 4.97 0.05 0.01 5.8 4.37 0.8 6.74 1.08 4.1 3.99 4.82 5.91 2.29 3.66 3.57 6.08 5.37 7.12 4.65 4.14 6.51 3.64 2.78 5.57 6.03 4.13 
4.42 0.23 5.73 5.17 2.5 4.55 7.09 0.95 4.29 2.65 2.69 2.59 4.93 4.81 4.16 4.28 4.89 3.61 7.68 3.89 6.12 4.52 3.95 3.49 5.99 6.91 0.18 3.78 0.94 1.83 2.3 6.73 
0.49 4.5 7.87 0.99 5.49 5.63 1.61 0.15 7.86 3.22 7.12 2.21 2.53 4.01 2.35 7.44 6.11 7.62 0.37 1.09 6.17 2.6 6.15 0.97 0.08 1.74 6.28 6.93 1.89 4.87 6.88 1.11 
3.25 5.73 2.81 3.96 1.79 2.43 3.77 7.77 2.84 0.46 3.99 3.61 4.18 4.4 2.29 6.2 3.85 3.9 1.1 5.2 2.26 0.36 4.3 7.6 6.6 6.1 4.61 3.18 6.2 3.21 0.92 1.31 
7.23 7.29 6.58 4.15 4.23 3.56 3.25 4.93 7.25 1.14 1.6 3.79 6.17 0.29 3.73 3.33 4.76 5.91 6.45 1.62 2.48 5.15 2.08 6.94 1.36 6.46 7.49 5.29 5.18 3.09 3.6 3.38 
0.9 1.58 7.4 2.97 7.22 3.67 7.98 7.92 1.67 7.8 6.78 2.17 0.83 2.42 7.36 2.64 3.91 4.72 2.23 5.86 6.58 5.33 3.51 6.67 4.24 4.36 1.49 3.48 4.8 6.93 1.51 0.11 
1.09 2.64 2.85 0.41 7.25 5.89 6.24 7.24 3.58 4.31 4.85 6.09 2.52 2.43 7.25 5.69 0.18 6.67 7.75 0.13 2.08 7.34 5.8 0.19 3.56 0.36 5.68 5.85 4.34 1.02 6.73 7.47 
6.07 0.16 2.09 4.84 4.66 3.66 2.38 6.53 2.28 5.1 1.88 5.67 5.07 2.57 6.81 6.65 7.13 4.94 5.44 1.65 0.28 0.45 5.16 0.96 5.41 5.92 1.51 2.89 1.46 7.42 7.45 5.95 
1 1 1 1 1 1 1 1 1 1 1 1 1 1 1 1 1 1 1 1 1 1 1 1 1 1 1 1 1 1 1 1 
1 1 1 1 1 1 1 1 1 1 1 1 1 1 1 1 1 1 1 1 1 1 1 1 1 1 1 1 1 1 1 1 
1 1 1 1 1 1 1 1 1 1 1 1 1 1 1 1 1 1 1 1 1 1 1 1 1 1 1 1 1 1 1 1 
1 1 1 1 1 1 1 1 1 1 1 1 1 1 1 1 1 1 1 1 1 1 1 1 1 1 1 1 1 1 1 1 
1 1 1 1 1 1 1 1 1 1 1 1 1 1 1 1 1 1 1 1 1 1 1 1 1 1 1 1 1 1 1 1 
1 1 1 1 1 1 1 1 1 1 1 1 1 1 1 1 1 1 1 1 1 1 1 1 1 1 1 1 1 1 1 1 
1 1 1 1 1 1 1 1 1 1 1 1 1 1 1 1 1 1 1 1 1 1 1 1 1 1 1 1 1 1 1 1 
1 1 1 1 1 1 1 1 1 1 1 1 1 1 1 1 1 1 1 1 1 1 1 1 1 1 1 1 1 1 1 1 
1 1 1 1 1 1 1 1 1 1 1 1 1 1 1 1 1 1 1 1 1 1 1 1 1 1 1 1 1 1 1 1 
1 1 1 1 1 1 1 1 1 1 1 1 1 1 1 1 1 1 1 1 1 1 1 1 1 1 1 1 1 1 1 1 
1 1 1 1 1 1 1 1 1 1 1 1 1 1 1 1 1 1 1 1 1 1 1 1 1 1 1 1 1 1 1 1 
1 1 1 1 1 1 1 1 1 1 1 1 1 1 1 1 1 1 1 1 1 1 1 1 1 1 1 1 1 1 1 1 
0.01 0.01 0.01 0.01 0.01 0.01 0.01 0.01 0.01 0.01 0.01 0.01 0.01 0.01 0.01 0.01 0.01 0.01 0.01 0.01 0.01 0.01 0.01 0.01 0.01 0.01 0.01 0.01 0.01 0.01 0.01 0.01 
0.02 0.02 0.02 0.02 0.02 0.02 0.02 0.02 0.02 0.02 0.02 0.02 0.02 0.02 0.02 0.02 0.02 0.02 0.02 0.02 0.02 0.02 0.02 0.02 0.02 0.02 0.02 0.02 0.02 0.02 0.02 0.02 
0.03 0.03 0.03 0.03 0.03 0.03 0.03 0.03 0.03 0.03 0.03 0.03 0.03 0.03 0.03 0.03 0.03 0.03 0.03 0.03 0.03 0.03 0.03 0.03 0.03 0.03 0.03 0.03 0.03 0.03 0.03 0.03 
0.04 0.04 0.04 0.04 0.04 0.04 0.04 0.04 0.04 0.04 0.04 0.04 0.04 0.04 0.04 0.04 0.04 0.04 0.04 0.04 0.04 0.04 0.04 0.04 0.04 0.04 0.04 0.04 0.04 0.04 0.04 0.04 
0.125 0.125 0.125 0.125 0.125 0.125 0.125 0.125 0.125 0.125 0.125 0.125 0.125 0.125 0.125 0.125 0.125 0.125 0.125 0.125 0.125 0.125 0.125 0.125 0.125 0.125 0.125 0.125 0.125 0.125 0.125 0.125 
0.25 0.25 0.25 0.25 0.25 0.25 0.25 0.25 0.25 0.25 0.25 0.25 0.25 0.25 0.25 0.25 0.25 0.25 0.25 0.25 0.25 0.25 0.25 0.25 0.25 0.25 0.25 0.25 0.25 0.25 0.25 0.25 
0.375 0.375 0.375 0.375 0.375 0.375 0.375 0.375 0.375 0.375 0.375 0.375 0.375 0.375 0.375 0.375 0.375 0.375 0.375 0.375 0.375 0.375 0.375 0.375 0.375 0.375 0.375 0.375 0.375 0.375 0.375 0.375 
0.5 0.5 0.5 0.5 0.5 0.5 0.5 0.5 0.5 0.5 0.5 0.5 0.5 0.5 0.5 0.5 0.5 0.5 0.5 0.5 0.5 0.5 0.5 0.5 0.5 0.5 0.5 0.5 0.5 0.5 0.5 0.5 
0.625 0.625 0.625 0.625 0.625 0.625 0.625 0.625 0.625 0.625 0.625 0.625 0.625 0.625 0.625 0.625 0.625 0.625 0.625 0.625 0.625 0.625 0.625 0.625 0.625 0.625 0.625 0.625 0.625 0.625 0.625 0.625 
0.75 0.75 0.75 0.75 0.75 0.75 0.75 0.75 0.75 0.75 0.75 0.75 0.75 0.75 0.75 0.75 0.75 0.75 0.75 0.75 0.75 0.75 0.75 0.75 0.75 0.75 0.75 0.75 0.75 0.75 0.75 0.75 
0.875 0.875 0.875 0.875 0.875 0.875 0.875 0.875 0.875 0.875 0.875 0.875 0.875 0.875 0.875 0.875 0.875 0.875 0.875 0.875 0.875 0.875 0.875 0.875 0.875 0.875 0.875 0.875 0.875 0.875 0.875 0.875 
1 1 1 1 1 1 1 1 1 1 1 1 1 1 1 1 1 1 1 1 1 1 1 1 1 1 1 1 1 1 1 1 
